32      10      
16      13      14      18      20      16      20      20      20      12      
0       0       0       0       0       0       0       0       0       0       0       1       2       
10      1       7       14      14      1       1       1       1       5       1       1       3       
2       7       5       10      1       1       1       7       1       1       1       1       4       
8       1       11      14      4       4       3       1       1       1       1       2       8       5       
1       7       13      14      8       1       1       7       1       1       1       1       6       
10      7       13      9       18      1       1       1       1       6       1       1       7       
5       1       6       1       1       8       1       1       1       1       1       1       9       
1       1       4       8       2       1       7       2       1       1       1       1       9       
9       3       4       14      3       3       1       1       1       1       1       2       15      10      
8       2       10      6       7       1       1       1       1       1       1       1       11      
4       1       4       6       17      1       1       1       6       3       6       2       25      12      
3       4       3       13      4       7       1       1       1       1       1       1       13      
3       1       13      5       5       11      1       1       7       4       1       1       14      
5       8       13      13      9       1       1       1       1       1       1       1       16      
1       1       6       7       15      1       1       8       7       1       1       1       16      
9       7       13      1       1       1       1       1       1       1       1       1       17      
3       4       13      14      7       1       1       1       7       5       1       2       23      18      
1       1       13      11      11      1       1       1       4       1       1       2       20      19      
9       3       8       6       10      1       1       1       1       1       2       1       21      
6       1       8       14      11      1       3       1       1       1       1       1       21      
9       1       6       1       11      1       1       1       1       1       1       1       22      
7       4       13      1       7       1       4       4       1       1       1       1       24      
5       6       7       1       4       1       1       1       1       6       1       1       24      
5       6       3       7       1       1       1       6       1       6       1       2       27      26      
8       5       13      8       1       1       1       1       1       1       1       2       27      26      
9       1       7       13      13      1       1       1       5       1       1       1       28      
3       1       9       13      6       3       1       1       1       1       1       1       28      
6       3       10      8       11      1       6       1       1       1       1       1       29      
4       10      8       14      18      1       1       1       1       3       1       1       30      
7       1       1       8       8       1       1       1       1       1       1       1       31      
5       2       10      2       4       1       1       3       1       1       1       1       32      
0       0       0       0       0       0       0       0       0       0       0       0       
